c Output_time 26.03.2020 18:13:25_+0100 1585242805995925287
c ** Program information **
c program_name                          "QBRG_debug"
c version                               "0.3.20"
c date                                  "25.3.2020"
c gid_id                                "673970833836058123f633335630c185360d632e"
c author                                "Oliver Kullmann"
c url                                   "https://github.com/OKullmann/oklibrary/blob/master/Satisfiability/Transformers/Generators/Random/QBRG.cpp"
c ** Machine information **
c machine_name                          "chyna-Lenovo-G50-70"
c bogomips                              3791.08
c ** Compilation information **
c compiler_version                      "g++ 7.5.0"
c compilation_date                      "Mar_26_2020 11:16:30"
c compilation_options                   "--std=c++17 -pedantic -fmax-errors=5 -Wall -Wextra -g -D_GLIBCXX_DEBUG"
c NDEBUG                                0
c OPTIMIZE                              0
c ** Parameters **
c command-line                          "./QBRG_debug" "e40 a40 40" "495*1,1|2-2,1|3-3,1" "" "1,t" ""
c output                                "QuBlRaGe_120_495_1585242805982237831.qdimacs"
c options                               "filtered,renamed"
c num_quantifier_blocks                 3
c  quantifier_blocks                    1:e1-40 2:a41-80 3:e81-120
c num_clause-blocks                     1
c  clause-blocks                        495 * {1-40,1,1/2} | {41-80,1,1/2} | {81-120,1,1/2}
c num_e-seeds                           30+2=32
c  e-seeds                              1 0 1 0 4 120 2 40 1 40 0 40 1 495 3 1 1 1 1 2 2 2 1 1 2 3 3 1 1 2 1 1585242805982237058
p cnf 120 495
e 1 2 3 4 5 6 7 8 9 10 11 12 13 14 15 16 17 18 19 20 21 22 23 24 25 26 27 28 29 30 31 32 33 34 35 36 37 38 39 40 0
a 41 42 43 44 45 46 47 48 49 50 51 52 53 54 55 56 57 58 59 60 61 62 63 64 65 66 67 68 69 70 71 72 73 74 75 76 77 78 79 80 0
e 81 82 83 84 85 86 87 88 89 90 91 92 93 94 95 96 97 98 99 100 101 102 103 104 105 106 107 108 109 110 111 112 113 114 115 116 117 118 119 120 0
16 42 -81 0
-6 44 -81 0
14 -53 -81 0
-20 -53 -81 0
-27 -56 -81 0
34 56 81 0
-5 60 81 0
27 -65 81 0
24 72 81 0
-39 -54 -82 0
-17 55 -82 0
7 -61 -82 0
-12 -69 -82 0
-32 -76 -82 0
-31 76 -82 0
25 78 -82 0
-2 41 82 0
-6 -47 82 0
-35 51 82 0
-4 54 82 0
-37 57 82 0
5 -66 82 0
-21 -66 82 0
30 71 82 0
-19 -72 82 0
5 73 82 0
-24 80 82 0
-21 41 -83 0
30 -51 -83 0
-37 52 -83 0
-10 58 -83 0
-33 -63 -83 0
20 -76 -83 0
-15 76 -83 0
14 79 -83 0
-10 58 83 0
-30 -62 83 0
20 70 83 0
-23 -79 83 0
23 -60 -84 0
25 61 -84 0
28 69 -84 0
-20 -46 84 0
-20 46 84 0
22 50 84 0
33 -62 84 0
-23 73 84 0
-33 -74 84 0
-23 -76 84 0
-7 78 84 0
11 -80 84 0
2 -46 -85 0
27 59 -85 0
-28 73 -85 0
1 78 -85 0
-9 -41 85 0
7 41 85 0
9 46 85 0
-1 -54 85 0
-17 56 85 0
-29 78 85 0
-27 -42 -86 0
17 -43 -86 0
-20 45 -86 0
30 -48 -86 0
-34 -52 -86 0
25 72 -86 0
37 -79 -86 0
-21 -51 86 0
-22 -53 86 0
27 53 86 0
17 60 86 0
-18 71 86 0
15 -73 86 0
-18 73 86 0
14 74 86 0
3 47 -87 0
-17 41 87 0
-4 -44 87 0
-7 51 87 0
-17 62 87 0
-12 68 87 0
40 -69 87 0
24 70 87 0
3 -42 -88 0
-29 44 -88 0
-39 58 -88 0
24 -64 -88 0
-23 -65 -88 0
-18 66 -88 0
-2 47 88 0
-4 -41 -89 0
-23 -61 -89 0
-32 -63 -89 0
-7 -67 -89 0
33 -69 -89 0
-10 51 89 0
-5 -61 89 0
37 63 89 0
22 -79 89 0
-20 41 -90 0
11 43 -90 0
-20 50 -90 0
-12 54 -90 0
16 56 -90 0
39 68 -90 0
-40 -73 -90 0
19 -80 -90 0
32 -41 90 0
26 -42 90 0
14 50 90 0
-5 -59 90 0
3 -65 90 0
-27 66 90 0
4 -68 90 0
7 -76 90 0
7 -79 90 0
37 80 90 0
-21 45 -91 0
22 47 -91 0
-23 -48 -91 0
-25 -53 -91 0
9 -63 -91 0
14 -67 -91 0
33 68 -91 0
-28 71 -91 0
27 -72 -91 0
-11 -73 -91 0
-1 43 91 0
-4 -59 91 0
21 -70 91 0
-14 70 91 0
27 73 91 0
-19 75 91 0
-23 75 91 0
-34 -43 -92 0
-2 43 -92 0
14 50 -92 0
24 50 -92 0
25 45 -93 0
-16 51 -93 0
2 63 -93 0
-39 44 93 0
25 59 93 0
29 60 93 0
-21 63 93 0
-26 66 93 0
-35 -69 93 0
-8 41 -94 0
-1 -48 -94 0
-10 -50 -94 0
-6 70 -94 0
18 41 94 0
3 -45 94 0
-37 45 94 0
-29 -52 94 0
-25 -63 94 0
29 68 94 0
-1 73 94 0
-14 73 94 0
27 76 94 0
-25 41 -95 0
-1 -60 -95 0
13 -62 -95 0
-7 -76 -95 0
33 -46 95 0
-12 -74 95 0
19 79 95 0
-9 -42 -96 0
38 43 -96 0
16 50 -96 0
-24 70 -96 0
14 -78 -96 0
-2 44 96 0
-21 -64 96 0
-33 -65 96 0
-18 67 96 0
19 51 -97 0
-26 -64 -97 0
34 -73 -97 0
-38 -75 -97 0
22 -57 97 0
-25 -66 97 0
-36 68 97 0
21 -76 97 0
-39 -42 -98 0
-37 46 -98 0
-15 -52 -98 0
-28 59 -98 0
8 61 -98 0
-14 -72 -98 0
14 44 98 0
-8 -45 98 0
15 45 98 0
-4 77 98 0
17 49 -99 0
-33 51 -99 0
-3 56 -99 0
16 -59 -99 0
3 -61 -99 0
39 -67 -99 0
-7 -76 -99 0
-6 -78 -99 0
-17 41 99 0
13 47 99 0
14 -63 99 0
40 -63 99 0
1 63 99 0
-3 69 99 0
-15 -79 99 0
11 46 -100 0
28 55 -100 0
-9 62 -100 0
38 -64 -100 0
-1 74 -100 0
-26 80 -100 0
1 41 100 0
-36 -49 100 0
-39 -54 100 0
-14 67 100 0
-25 70 100 0
-36 43 -101 0
-5 46 -101 0
-4 -56 -101 0
-40 -61 -101 0
33 69 -101 0
30 -80 -101 0
6 -42 101 0
-30 43 101 0
34 46 101 0
34 56 101 0
12 -67 101 0
8 -74 101 0
-27 -75 101 0
-18 -76 101 0
-1 51 -102 0
9 -52 -102 0
-2 -57 -102 0
7 60 -102 0
17 -61 -102 0
-5 -63 -102 0
37 63 -102 0
30 67 -102 0
-23 -80 -102 0
6 42 102 0
-34 -47 102 0
-4 -59 102 0
26 67 102 0
13 -73 102 0
16 75 102 0
-32 76 102 0
-6 43 -103 0
9 44 -103 0
34 -56 -103 0
11 69 -103 0
29 79 -103 0
3 -43 103 0
40 46 103 0
-34 -52 103 0
-37 70 103 0
-27 80 103 0
-4 51 -104 0
-16 68 -104 0
-34 -75 -104 0
35 79 -104 0
32 62 104 0
-9 -66 104 0
18 -66 104 0
-13 70 104 0
-16 75 104 0
29 75 104 0
-19 -45 -105 0
-9 51 -105 0
-14 76 -105 0
-32 -80 -105 0
27 -46 105 0
-9 -49 105 0
-29 49 105 0
-19 -51 105 0
31 -67 105 0
32 -73 105 0
19 -74 105 0
26 -42 -106 0
21 46 -106 0
-11 -47 -106 0
17 -55 -106 0
-23 -58 -106 0
-13 60 -106 0
-15 -62 -106 0
-5 72 -106 0
-25 -47 106 0
24 53 106 0
10 55 106 0
13 -57 106 0
-22 -60 106 0
-36 41 -107 0
-29 -46 -107 0
-36 52 -107 0
22 54 -107 0
-39 -56 -107 0
-32 58 -107 0
-23 -63 -107 0
1 -75 -107 0
-31 77 -107 0
-6 -80 -107 0
-34 -44 107 0
20 62 107 0
39 62 107 0
-20 63 107 0
-13 67 107 0
35 67 107 0
-40 -73 107 0
-39 -77 107 0
33 42 -108 0
-6 53 -108 0
37 57 -108 0
-40 -75 -108 0
24 -78 -108 0
34 -80 -108 0
23 -41 108 0
-5 -51 108 0
-11 55 108 0
30 -56 108 0
5 72 108 0
17 74 108 0
-34 -80 108 0
-25 -43 -109 0
2 44 -109 0
-9 -56 -109 0
18 -57 -109 0
-25 58 -109 0
13 -63 -109 0
-11 -70 -109 0
-4 74 -109 0
-23 -75 -109 0
-36 42 109 0
19 -52 109 0
-27 63 109 0
37 44 -110 0
-27 -49 -110 0
-22 -55 -110 0
-12 -57 -110 0
-28 -65 -110 0
-28 75 -110 0
33 -41 110 0
-26 43 110 0
-6 -50 110 0
-18 62 110 0
-8 66 110 0
20 66 110 0
-29 74 110 0
38 -77 110 0
-14 77 110 0
12 79 110 0
35 -43 -111 0
-15 44 -111 0
-23 -45 -111 0
5 -51 -111 0
35 -53 -111 0
-14 -57 -111 0
3 57 -111 0
17 59 -111 0
-22 65 -111 0
20 69 -111 0
38 -74 -111 0
-13 -76 -111 0
-15 76 -111 0
-33 76 -111 0
33 76 -111 0
39 77 -111 0
-6 42 111 0
29 -46 111 0
3 -47 111 0
28 -49 111 0
-11 -65 111 0
-2 -70 111 0
11 -74 111 0
-10 77 111 0
-10 -78 111 0
-26 -78 111 0
-22 -44 -112 0
26 57 -112 0
10 59 -112 0
-38 -61 -112 0
-6 46 112 0
38 -52 112 0
15 56 112 0
-9 57 112 0
-33 -59 112 0
25 62 112 0
12 -69 112 0
8 -71 112 0
28 -74 112 0
6 -41 -113 0
30 42 -113 0
34 -43 -113 0
37 59 -113 0
22 -62 -113 0
9 65 -113 0
-15 -71 -113 0
25 75 -113 0
26 -48 113 0
5 56 113 0
-11 -59 113 0
21 -60 113 0
27 -65 113 0
32 67 113 0
-5 75 113 0
35 79 113 0
-35 80 113 0
-11 -46 -114 0
-21 56 -114 0
39 75 -114 0
23 47 114 0
2 -54 114 0
19 -63 114 0
-34 74 114 0
-22 -76 114 0
9 -79 114 0
27 50 -115 0
6 54 -115 0
-31 59 -115 0
9 60 -115 0
8 71 -115 0
-21 71 -115 0
-5 -76 -115 0
19 -76 -115 0
-24 -49 115 0
-15 49 115 0
-27 54 115 0
-19 66 115 0
34 68 115 0
2 -71 115 0
21 -73 115 0
6 -79 115 0
10 -48 -116 0
18 -51 -116 0
14 57 -116 0
36 -69 -116 0
22 70 -116 0
-28 75 -116 0
29 75 -116 0
-13 76 -116 0
38 -76 116 0
-34 76 116 0
15 -45 -117 0
35 -52 -117 0
15 53 -117 0
-8 -56 -117 0
3 77 -117 0
37 77 -117 0
-25 -78 -117 0
-6 42 117 0
-33 50 117 0
40 -55 117 0
-29 -66 117 0
39 -75 117 0
-7 -50 -118 0
32 57 -118 0
4 60 -118 0
9 -63 -118 0
-17 -71 -118 0
35 -71 -118 0
-32 73 -118 0
-36 -41 118 0
15 42 118 0
-1 52 118 0
19 -68 118 0
36 -68 118 0
-14 -45 -119 0
8 54 -119 0
-36 -56 -119 0
-25 -58 -119 0
-3 62 -119 0
20 -43 119 0
-38 -46 119 0
4 -49 119 0
-8 66 119 0
-1 71 119 0
38 74 119 0
-36 -47 -120 0
33 48 -120 0
7 -49 -120 0
-6 51 -120 0
-24 61 -120 0
-8 62 -120 0
5 -63 -120 0
2 63 -120 0
25 65 -120 0
32 -68 -120 0
13 -76 -120 0
-15 68 120 0
-38 -71 120 0
-7 -75 120 0
31 80 120 0
